Version identifier: 22.1.1.0 | 2022-11-28 | 9160aff4d
CPXPARAM_ClockType                               1
CPXPARAM_Read_DataCheck                          1
CPXPARAM_Threads                                 1
CPXPARAM_TimeLimit                               7200
CPXPARAM_MIP_Tolerances_AbsMIPGap                0
CPXPARAM_MIP_Tolerances_MIPGap                   0
CPXPARAM_MIP_Tolerances_Integrality              0
Tried aggregator 5 times.
MIP Presolve eliminated 4983 rows and 1568 columns.
MIP Presolve modified 2 coefficients.
Aggregator did 490 substitutions.
Reduced MIP has 1780 rows, 1014 columns, and 4973 nonzeros.
Reduced MIP has 1014 binaries, 0 generals, 0 SOSs, and 0 indicators.
Presolve time = 0.02 sec. (12.08 ticks)
Found incumbent of value 0.000000 after 0.02 sec. (13.88 ticks)
Probing time = 0.00 sec. (3.14 ticks)
Tried aggregator 1 time.
Detecting symmetries...
MIP Presolve eliminated 7 rows and 4 columns.
MIP Presolve modified 2 coefficients.
Reduced MIP has 1773 rows, 1010 columns, and 4952 nonzeros.
Reduced MIP has 1010 binaries, 0 generals, 0 SOSs, and 0 indicators.
Presolve time = 0.00 sec. (5.46 ticks)
Probing time = 0.00 sec. (3.05 ticks)
Clique table members: 3538.
MIP emphasis: balance optimality and feasibility.
MIP search method: dynamic search.
Parallel mode: none, using 1 thread.
Root relaxation solution time = 0.01 sec. (2.21 ticks)

        Nodes                                         Cuts/
   Node  Left     Objective  IInf  Best Integer    Best Bound    ItCnt     Gap

*     0+    0                            0.0000      203.0000              --- 
      0     0      203.0000   191        0.0000      203.0000       11     --- 
*     0+    0                          203.0000      203.0000             0.00%
      0     0        cutoff            203.0000      203.0000       11    0.00%
Elapsed time = 0.05 sec. (32.71 ticks, tree = 0.01 MB, solutions = 2)

Root node processing (before b&c):
  Real time             =    0.05 sec. (32.83 ticks)
Sequential b&c:
  Real time             =    0.00 sec. (0.00 ticks)
                          ------------
Total (root+branch&cut) =    0.05 sec. (32.83 ticks)
Solution is feasible.

---------------------
@@@ MIP_optimal
>>> Benchmark mc2024_track1_181.cnf k 2 OPT 203 TimeCost 0.5446469783782959 TimeSolve 0.05530905723571777 TimeRead 0.00554656982421875 TimeTrans 0.4837913513183594
